MARKOV
231
 2 2 2 2 2 2 2 2 2 2 2 2 2 2 2 2 2 2 2 2 2 2 2 2 2 2 2 2 2 2 2 2 2 2 2 2 2 2 2 2 2 2 2 2 2 2 2 2 2 2 2 2 2 2 2 2 2 2 2 2 2 2 2 2 2 2 2 2 2 2 2 2 2 2 2 2 2 2 2 2 2 2 2 2 2 2 2 2 2 2 2 2 2 2 2 2 2 2 2 2 2 2 2 2 2 2 2 2 2 2 2 2 2 2 2 2 2 2 2 2 2 2 2 2 2 2 2 2 2 2 2 2 2 2 2 2 2 2 2 2 2 2 2 2 2 2 2 2 2 2 2 2 2 2 2 2 2 2 2 2 2 2 2 2 2 2 2 2 2 2 2 2 2 2 2 2 2 2 2 2 2 2 2 2 2 2 2 2 2 2 2 2 2 2 2 2 2 2 2 2 2 2 2 2 2 2 2 2 2 2 2 2 2 2 2 2 2 2 2 2 2 2 2 2 2 2 2 2 2 2 2
859
1	0 
1	1 
1	2 
1	3 
1	4 
1	5 
1	6 
1	7 
1	8 
1	9 
1	10 
1	11 
1	12 
1	13 
1	14 
1	15 
1	16 
1	17 
1	18 
1	19 
1	20 
1	21 
1	22 
1	23 
1	24 
1	25 
1	26 
1	27 
1	28 
1	29 
1	30 
1	31 
1	32 
1	33 
1	34 
1	35 
1	36 
1	37 
1	38 
1	39 
1	40 
1	41 
1	42 
1	43 
1	44 
1	45 
1	46 
1	47 
1	48 
1	49 
1	50 
1	51 
1	52 
1	53 
1	54 
1	55 
1	56 
1	57 
1	58 
1	59 
1	60 
1	61 
1	62 
1	63 
1	64 
1	65 
1	66 
1	67 
1	68 
1	69 
1	70 
1	71 
1	72 
1	73 
1	74 
1	75 
1	76 
1	77 
1	78 
1	79 
1	80 
1	81 
1	82 
1	83 
1	84 
1	85 
1	86 
1	87 
1	88 
1	89 
1	90 
1	91 
1	92 
1	93 
1	94 
1	95 
1	96 
1	97 
1	98 
1	99 
1	100 
1	101 
1	102 
1	103 
1	104 
1	105 
1	106 
1	107 
1	108 
1	109 
1	110 
1	111 
1	112 
1	113 
1	114 
1	115 
1	116 
1	117 
1	118 
1	119 
1	120 
1	121 
1	122 
1	123 
1	124 
1	125 
1	126 
1	127 
1	128 
1	129 
1	130 
1	131 
1	132 
1	133 
1	134 
1	135 
1	136 
1	137 
1	138 
1	139 
1	140 
1	141 
1	142 
1	143 
1	144 
1	145 
1	146 
1	147 
1	148 
1	149 
1	150 
1	151 
1	152 
1	153 
1	154 
1	155 
1	156 
1	157 
1	158 
1	159 
1	160 
1	161 
1	162 
1	163 
1	164 
1	165 
1	166 
1	167 
1	168 
1	169 
1	170 
1	171 
1	172 
1	173 
1	174 
1	175 
1	176 
1	177 
1	178 
1	179 
1	180 
1	181 
1	182 
1	183 
1	184 
1	185 
1	186 
1	187 
1	188 
1	189 
1	190 
1	191 
1	192 
1	193 
1	194 
1	195 
1	196 
1	197 
1	198 
1	199 
1	200 
1	201 
1	202 
1	203 
1	204 
1	205 
1	206 
1	207 
1	208 
1	209 
1	210 
1	211 
1	212 
1	213 
1	214 
1	215 
1	216 
1	217 
1	218 
1	219 
1	220 
1	221 
1	222 
1	223 
1	224 
1	225 
1	226 
1	227 
1	228 
1	229 
1	230 
2	1 2 
2	1 52 
2	1 53 
2	1 54 
2	1 60 
2	2 51 
2	2 52 
2	2 170 
2	3 4 
2	3 6 
2	3 7 
2	3 8 
2	3 9 
2	3 78 
2	4 5 
2	4 6 
2	4 8 
2	4 10 
2	5 6 
2	6 7 
2	7 78 
2	8 9 
2	8 10 
2	8 39 
2	8 40 
2	9 40 
2	9 78 
2	9 79 
2	9 80 
2	10 39 
2	11 12 
2	11 13 
2	11 16 
2	11 24 
2	11 152 
2	11 154 
2	12 13 
2	12 14 
2	12 112 
2	13 74 
2	13 112 
2	13 113 
2	13 151 
2	13 154 
2	14 15 
2	14 16 
2	15 16 
2	15 17 
2	16 17 
2	16 24 
2	17 26 
2	18 19 
2	18 21 
2	18 50 
2	18 51 
2	18 56 
2	18 58 
2	18 170 
2	19 21 
2	19 22 
2	19 168 
2	19 170 
2	20 21 
2	20 22 
2	20 55 
2	20 169 
2	21 22 
2	21 55 
2	21 56 
2	21 57 
2	22 168 
2	22 169 
2	23 24 
2	23 25 
2	23 26 
2	23 97 
2	23 98 
2	24 25 
2	24 26 
2	24 152 
2	25 97 
2	25 152 
2	25 211 
2	27 28 
2	27 30 
2	27 31 
2	27 156 
2	28 31 
2	28 156 
2	28 159 
2	28 161 
2	29 30 
2	29 31 
2	29 79 
2	29 163 
2	29 171 
2	29 173 
2	30 31 
2	30 172 
2	30 173 
2	31 159 
2	31 163 
2	32 33 
2	32 34 
2	32 37 
2	32 212 
2	32 215 
2	33 35 
2	33 36 
2	33 37 
2	33 101 
2	33 212 
2	34 37 
2	34 178 
2	34 181 
2	35 36 
2	35 100 
2	35 101 
2	35 140 
2	35 141 
2	36 37 
2	36 141 
2	36 146 
2	36 181 
2	37 181 
2	38 40 
2	38 41 
2	38 67 
2	38 80 
2	38 217 
2	38 218 
2	39 40 
2	39 41 
2	40 41 
2	40 80 
2	41 67 
2	42 43 
2	42 44 
2	42 81 
2	42 174 
2	42 175 
2	42 229 
2	43 81 
2	43 83 
2	43 151 
2	43 175 
2	43 210 
2	44 49 
2	44 174 
2	44 177 
2	44 229 
2	45 46 
2	45 47 
2	45 49 
2	45 71 
2	45 72 
2	45 177 
2	46 47 
2	46 48 
2	46 49 
2	46 226 
2	46 230 
2	47 48 
2	47 72 
2	47 192 
2	48 122 
2	48 192 
2	48 193 
2	48 226 
2	49 177 
2	49 229 
2	49 230 
2	50 51 
2	50 52 
2	50 58 
2	50 207 
2	51 52 
2	51 170 
2	52 54 
2	52 207 
2	53 54 
2	53 60 
2	53 206 
2	53 208 
2	54 207 
2	54 208 
2	55 57 
2	55 179 
2	55 180 
2	56 57 
2	56 58 
2	56 116 
2	56 117 
2	57 116 
2	57 180 
2	58 117 
2	58 118 
2	58 207 
2	59 61 
2	59 90 
2	59 155 
2	59 160 
2	60 61 
2	60 206 
2	61 90 
2	61 206 
2	62 63 
2	62 94 
2	62 142 
2	62 157 
2	62 158 
2	63 64 
2	63 93 
2	63 94 
2	63 138 
2	63 158 
2	63 167 
2	64 121 
2	64 122 
2	64 138 
2	64 164 
2	64 167 
2	65 68 
2	65 69 
2	65 95 
2	65 98 
2	66 67 
2	66 68 
2	66 69 
2	66 85 
2	66 88 
2	66 200 
2	66 218 
2	67 68 
2	67 218 
2	68 69 
2	69 85 
2	69 95 
2	70 71 
2	70 72 
2	70 184 
2	70 185 
2	71 72 
2	71 76 
2	71 177 
2	72 184 
2	73 75 
2	73 76 
2	73 77 
2	74 75 
2	74 77 
2	74 113 
2	74 151 
2	74 176 
2	75 76 
2	75 77 
2	75 174 
2	75 176 
2	75 177 
2	76 177 
2	77 113 
2	78 79 
2	78 172 
2	78 173 
2	79 80 
2	79 162 
2	79 163 
2	79 171 
2	79 173 
2	80 162 
2	80 217 
2	81 82 
2	81 83 
2	81 227 
2	81 229 
2	82 83 
2	82 84 
2	82 201 
2	82 204 
2	82 227 
2	83 84 
2	83 87 
2	83 209 
2	83 210 
2	84 86 
2	84 87 
2	84 198 
2	84 204 
2	85 87 
2	85 88 
2	85 95 
2	85 96 
2	85 211 
2	86 87 
2	86 88 
2	86 198 
2	86 200 
2	87 88 
2	87 209 
2	87 211 
2	88 200 
2	89 92 
2	89 159 
2	89 162 
2	89 163 
2	89 202 
2	89 205 
2	89 216 
2	90 91 
2	90 107 
2	90 108 
2	90 160 
2	90 206 
2	91 92 
2	91 108 
2	91 160 
2	91 161 
2	91 220 
2	92 159 
2	92 161 
2	92 205 
2	92 220 
2	92 221 
2	93 94 
2	93 138 
2	93 139 
2	93 145 
2	94 142 
2	94 143 
2	94 145 
2	95 96 
2	95 97 
2	95 98 
2	96 97 
2	96 211 
2	97 98 
2	97 211 
2	99 100 
2	99 101 
2	99 102 
2	99 135 
2	99 212 
2	99 214 
2	100 101 
2	100 102 
2	100 140 
2	100 224 
2	101 212 
2	102 125 
2	102 135 
2	102 187 
2	102 224 
2	102 225 
2	103 105 
2	103 106 
2	103 165 
2	103 166 
2	103 201 
2	103 228 
2	104 105 
2	104 106 
2	104 109 
2	104 157 
2	104 219 
2	104 221 
2	105 106 
2	105 157 
2	105 166 
2	106 201 
2	106 203 
2	106 221 
2	107 108 
2	107 110 
2	107 111 
2	107 206 
2	108 109 
2	108 111 
2	108 220 
2	109 111 
2	109 157 
2	109 219 
2	109 220 
2	110 111 
2	110 115 
2	110 142 
2	110 206 
2	110 208 
2	111 142 
2	111 157 
2	112 113 
2	114 115 
2	114 118 
2	114 143 
2	114 144 
2	114 207 
2	114 208 
2	115 142 
2	115 143 
2	115 208 
2	116 117 
2	116 147 
2	116 180 
2	116 182 
2	117 118 
2	117 147 
2	117 149 
2	118 144 
2	118 149 
2	118 207 
2	119 120 
2	119 121 
2	119 136 
2	119 138 
2	119 222 
2	119 223 
2	120 121 
2	120 122 
2	120 195 
2	120 223 
2	121 122 
2	121 138 
2	122 164 
2	122 193 
2	122 226 
2	123 124 
2	123 126 
2	123 188 
2	124 126 
2	124 127 
2	124 130 
2	125 126 
2	125 127 
2	125 135 
2	125 187 
2	126 127 
2	126 187 
2	126 188 
2	126 190 
2	127 130 
2	127 134 
2	127 135 
2	128 129 
2	128 132 
2	128 133 
2	129 130 
2	129 133 
2	130 133 
2	130 134 
2	131 132 
2	131 133 
2	131 134 
2	131 135 
2	131 213 
2	131 214 
2	132 133 
2	132 213 
2	133 134 
2	134 135 
2	135 214 
2	136 137 
2	136 138 
2	136 139 
2	136 140 
2	136 222 
2	136 224 
2	137 139 
2	137 140 
2	137 141 
2	137 145 
2	137 148 
2	137 150 
2	138 139 
2	139 145 
2	140 141 
2	140 224 
2	141 146 
2	141 148 
2	142 143 
2	142 157 
2	143 144 
2	143 145 
2	144 145 
2	144 149 
2	144 150 
2	145 150 
2	146 147 
2	146 148 
2	146 181 
2	146 182 
2	147 148 
2	147 149 
2	147 182 
2	148 149 
2	148 150 
2	149 150 
2	151 153 
2	151 154 
2	151 175 
2	151 176 
2	151 210 
2	152 153 
2	152 154 
2	152 211 
2	153 154 
2	153 209 
2	153 210 
2	153 211 
2	155 156 
2	155 160 
2	156 160 
2	156 161 
2	157 158 
2	157 166 
2	158 167 
2	159 161 
2	159 163 
2	160 161 
2	162 163 
2	162 216 
2	162 217 
2	164 165 
2	164 166 
2	164 167 
2	164 226 
2	165 166 
2	165 226 
2	165 228 
2	165 230 
2	166 167 
2	168 169 
2	168 170 
2	171 173 
2	172 173 
2	174 175 
2	174 176 
2	174 177 
2	175 176 
2	178 179 
2	178 180 
2	178 181 
2	179 180 
2	180 181 
2	180 182 
2	181 182 
2	183 184 
2	183 185 
2	183 186 
2	183 191 
2	183 196 
2	184 185 
2	184 192 
2	184 196 
2	185 191 
2	186 188 
2	186 189 
2	186 190 
2	186 191 
2	186 194 
2	186 196 
2	186 197 
2	187 189 
2	187 190 
2	187 225 
2	188 190 
2	188 191 
2	189 190 
2	189 197 
2	189 223 
2	189 225 
2	192 193 
2	192 196 
2	193 194 
2	193 195 
2	193 196 
2	194 195 
2	194 196 
2	194 197 
2	195 197 
2	195 223 
2	197 223 
2	198 199 
2	198 200 
2	198 202 
2	198 204 
2	199 200 
2	199 202 
2	199 216 
2	199 217 
2	200 217 
2	200 218 
2	201 203 
2	201 204 
2	201 227 
2	201 228 
2	202 203 
2	202 204 
2	202 205 
2	202 216 
2	203 204 
2	203 205 
2	203 221 
2	205 221 
2	206 208 
2	207 208 
2	209 210 
2	209 211 
2	212 214 
2	212 215 
2	213 214 
2	213 215 
2	214 215 
2	216 217 
2	217 218 
2	219 220 
2	219 221 
2	220 221 
2	222 223 
2	222 224 
2	222 225 
2	223 225 
2	224 225 
2	226 230 
2	227 228 
2	227 229 
2	228 229 
2	228 230 
2	229 230 
0	

2
 0.252912 1
2
 0.13279 1
2
 0.145555 1
2
 0.578834 1
2
 1 0.515775
2
 1 0.600162
2
 0.702208 1
2
 1 0.664332
2
 1 0.376777
2
 0.899019 1
2
 1 0.164677
2
 1 0.0570133
2
 1 0.222786
2
 1 0.159353
2
 1 0.0709609
2
 1 0.194165
2
 1 0.034911
2
 1 0.0490282
2
 0.986116 1
2
 0.574733 1
2
 1 0.54186
2
 1 0.712439
2
 0.462476 1
2
 1 0.12077
2
 1 0.0665745
2
 1 0.0865378
2
 1 0.0297669
2
 1 0.284795
2
 1 0.867462
2
 0.440563 1
2
 1 0.375473
2
 1 0.578173
2
 1 0.101657
2
 1 0.227913
2
 1 0.0390534
2
 1 0.286389
2
 1 0.182655
2
 1 0.243173
2
 0.848693 1
2
 1 0.931688
2
 0.441042 1
2
 1 0.575805
2
 1 0.242185
2
 1 0.43529
2
 1 0.194254
2
 1 0.0719612
2
 1 0.261551
2
 1 0.0958771
2
 1 0.416669
2
 1 0.201539
2
 0.775212 1
2
 0.278713 1
2
 1 0.598168
2
 0.490606 1
2
 1 0.709597
2
 1 0.258259
2
 1 0.831541
2
 1 0.468608
2
 1 0.684436
2
 0.424189 1
2
 0.190392 1
2
 0.818954 1
2
 0.0587311 1
2
 0.0532914 1
2
 0.0663127 1
2
 1 0.309575
2
 1 0.486451
2
 1 0.453469
2
 1 0.762486
2
 1 0.279736
2
 1 0.0832116
2
 1 0.0945288
2
 1 0.0630995
2
 1 0.0643318
2
 1 0.375334
2
 1 0.0855721
2
 1 0.0634222
2
 1 0.222773
2
 1 0.428448
2
 0.703671 1
2
 0.245062 1
2
 1 0.501165
2
 1 0.405168
2
 1 0.486838
2
 0.993327 1
2
 1 0.609647
2
 1 0.70922
2
 1 0.648836
2
 1 0.495365
2
 0.845256 1
2
 1 0.922914
2
 0.490762 1
2
 0.628291 1
2
 0.100346 1
2
 0.0384205 1
2
 1 0.140801
2
 1 0.158662
2
 1 0.206046
2
 1 0.0290154
2
 1 0.343776
2
 1 0.268063
2
 1 0.215883
2
 1 0.209601
2
 0.0500244 1
2
 0.08677 1
2
 0.0595528 1
2
 0.0321109 1
2
 0.527231 1
2
 0.28581 1
2
 0.423216 1
2
 0.432746 1
2
 0.35159 1
2
 1 0.279531
2
 1 0.331819
2
 0.299685 1
2
 0.447405 1
2
 0.969199 1
2
 0.693263 1
2
 0.527945 1
2
 1 0.720255
2
 1 0.34421
2
 0.737811 1
2
 0.483081 1
2
 1 0.0653646
2
 1 0.092958
2
 1 0.0994768
2
 1 0.126591
2
 1 0.120215
2
 1 0.0470395
2
 1 0.0675919
2
 1 0.0705679
2
 1 0.0669959
2
 1 0.0838434
2
 1 0.0843484
2
 1 0.103142
2
 1 0.158897
2
 1 0.578397
2
 1 0.314915
2
 0.171803 1
2
 1 0.927197
2
 1 0.358942
2
 1 0.220067
2
 0.220739 1
2
 0.465273 1
2
 1 0.906993
2
 0.519985 1
2
 1 0.558954
2
 0.561232 1
2
 0.764075 1
2
 0.657847 1
2
 0.283002 1
2
 1 0.086481
2
 1 0.0721389
2
 1 0.14047
2
 1 0.154637
2
 0.419483 1
2
 1 0.988338
2
 0.140445 1
2
 0.0980699 1
2
 0.0944981 1
2
 0.172551 1
2
 0.0867156 1
2
 0.170924 1
2
 0.25306 1
2
 0.0290829 1
2
 0.0287996 1
2
 0.102846 1
2
 0.0594512 1
2
 1 0.398411
2
 1 0.522919
2
 1 0.474148
2
 0.548152 1
2
 1 0.718495
2
 0.815524 1
2
 1 0.111649
2
 1 0.161304
2
 1 0.176426
2
 1 0.10893
2
 1 0.258007
2
 1 0.92906
2
 0.636133 1
2
 1 0.7283
2
 0.643935 1
2
 1 0.0747144
2
 1 0.0790601
2
 1 0.0975579
2
 1 0.209029
2
 1 0.15775
2
 1 0.0896588
2
 1 0.186575
2
 1 0.0904849
2
 1 0.0708535
2
 1 0.185898
2
 1 0.254186
2
 1 0.290984
2
 1 0.212321
2
 1 0.0896301
2
 1 0.300219
2
 1 0.314206
2
 1 0.314277
2
 1 0.591367
2
 0.4302 1
2
 0.728515 1
2
 1 0.808187
2
 1 0.516908
2
 1 0.698007
2
 1 0.484562
2
 1 0.632653
2
 0.867797 1
2
 1 0.249398
2
 1 0.226261
2
 1 0.222282
2
 1 0.24332
2
 1 0.148984
2
 1 0.180755
2
 1 0.181288
2
 0.629261 1
2
 0.522501 1
2
 1 0.31126
2
 1 0.753106
2
 0.765404 1
2
 0.607035 1
2
 1 0.454375
2
 1 0.461257
2
 1 0.256328
2
 1 0.275522
2
 0.307882 1
2
 1 0.78138
2
 0.255577 1
2
 1 0.554432
2
 0.414563 1
4
 0.926569 0.241286 0.241286 1
4
 0.930897 0.244993 0.244993 1
4
 0.931262 0.247849 0.247849 1
4
 0.93121 0.246498 0.246498 1
4
 0.931262 0.249092 0.249092 1
4
 0.927611 0.239114 0.239114 1
4
 0.929748 0.242096 0.242096 1
4
 0.924595 0.235878 0.235878 1
4
 0.960139 0.301579 0.301579 1
4
 0.9553 0.29704 0.29704 1
4
 0.954496 0.294976 0.294976 1
4
 0.964408 0.303611 0.303611 1
4
 0.96338 0.301443 0.301443 1
4
 0.955515 0.294631 0.294631 1
4
 0.957124 0.301773 0.301773 1
4
 0.956373 0.299815 0.299815 1
4
 0.965491 0.306447 0.306447 1
4
 0.965491 0.307984 0.307984 1
4
 0.9523 0.297231 0.297231 1
4
 0.950751 0.293251 0.293251 1
4
 0.950965 0.290872 0.290872 1
4
 0.96875 0.30631 0.30631 1
4
 0.969784 0.310059 0.310059 1
4
 0.974533 0.313312 0.313312 1
4
 0.974151 0.310736 0.310736 1
4
 0.973112 0.308517 0.308517 1
4
 0.959817 0.29725 0.29725 1
4
 0.967555 0.302183 0.302183 1
4
 0.972402 0.306147 0.306147 1
4
 0.974533 0.314883 0.314883 1
4
 1 0.349184 0.349184 0.949353
4
 1 0.344943 0.344943 0.954002
4
 1 0.350331 0.350331 0.951755
4
 1 0.348074 0.348074 0.955879
4
 1 0.344743 0.344743 0.958458
4
 1 0.343669 0.343669 0.957114
4
 1 0.346754 0.346754 0.950046
4
 1 0.35372 0.35372 0.943772
4
 1 0.348992 0.348992 0.945734
4
 1 0.339327 0.339327 0.955716
4
 1 0.344753 0.344753 0.950365
4
 1 0.342399 0.342399 0.951914
4
 1 0.33815 0.33815 0.960343
4
 1 0.341278 0.341278 0.957812
4
 1 0.359528 0.359528 0.941233
4
 1 0.354883 0.354883 0.94616
4
 1 0.357954 0.357954 0.945258
4
 1 0.360756 0.360756 0.944463
4
 1 0.356095 0.356095 0.949407
4
 1 0.351052 0.351052 0.954324
4
 1 0.356716 0.356716 0.952665
4
 0.932573 0.238116 0.238116 1
4
 0.935826 0.239425 0.239425 1
4
 0.935877 0.242752 0.242752 1
4
 0.932206 0.240128 0.240128 1
4
 0.939036 0.243048 0.243048 1
4
 0.939089 0.244788 0.244788 1
4
 0.929175 0.236879 0.236879 1
4
 0.933779 0.237091 0.237091 1
4
 0.930534 0.234228 0.234228 1
4
 0.926571 0.232596 0.232596 1
4
 0.927143 0.23457 0.23457 1
4
 0.935512 0.235594 0.235594 1
4
 0.932261 0.232749 0.232749 1
4
 0.938353 0.235617 0.235617 1
4
 0.92777 0.22929 0.22929 1
4
 0.933779 0.235515 0.235515 1
4
 0.939882 0.238417 0.238417 1
4
 0.94025 0.242002 0.242002 1
4
 0.940198 0.240282 0.240282 1
4
 0.926572 0.23105 0.23105 1
4
 0.926052 0.229213 0.229213 1
4
 1 0.349793 0.349793 0.960939
4
 1 0.34779 0.34779 0.964344
4
 1 0.352676 0.352676 0.960076
4
 1 0.347368 0.347368 0.967381
4
 1 0.349001 0.349001 0.968088
4
 1 0.346792 0.346792 0.961856
4
 1 0.351664 0.351664 0.957599
4
 1 0.345452 0.345452 0.961046
4
 1 0.344388 0.344388 0.968305
4
 1 0.343473 0.343473 0.964451
4
 1 0.339945 0.339945 0.970699
4
 0.945749 0.276531 0.276531 1
4
 0.944422 0.277931 0.277931 1
4
 0.947822 0.279253 0.279253 1
4
 0.942304 0.272811 0.272811 1
4
 0.950968 0.280864 0.280864 1
4
 0.945431 0.274385 0.274385 1
4
 0.953535 0.281044 0.281044 1
4
 0.950221 0.277188 0.277188 1
4
 0.952463 0.285495 0.285495 1
4
 0.955892 0.286852 0.286852 1
4
 0.963057 0.295141 0.295141 1
4
 0.961545 0.290839 0.290839 1
4
 0.961058 0.293024 0.293024 1
4
 0.957181 0.290555 0.290555 1
4
 0.949633 0.282286 0.282286 1
4
 0.946598 0.282808 0.282808 1
4
 0.950913 0.28593 0.28593 1
4
 0.955625 0.283811 0.283811 1
4
 0.958688 0.287571 0.287571 1
4
 0.980144 0.262752 0.262752 1
4
 0.973781 0.25697 0.25697 1
4
 0.975532 0.25952 0.25952 1
4
 0.984502 0.264964 0.264964 1
4
 0.985 0.263866 0.263866 1
4
 0.981796 0.267332 0.267332 1
4
 0.97767 0.264268 0.264268 1
4
 0.976353 0.261772 0.261772 1
4
 0.985718 0.26903 0.26903 1
4
 0.985331 0.267263 0.267263 1
4
 0.970015 0.256012 0.256012 1
4
 0.963772 0.250913 0.250913 1
4
 0.965667 0.253757 0.253757 1
4
 0.978493 0.266562 0.266562 1
4
 0.986935 0.273158 0.273158 1
4
 0.986548 0.271364 0.271364 1
4
 0.983229 0.271939 0.271939 1
4
 0.979317 0.268875 0.268875 1
4
 0.973069 0.261018 0.261018 1
4
 0.975202 0.265794 0.265794 1
4
 0.970722 0.261894 0.261894 1
4
 0.968708 0.258719 0.258719 1
4
 0.967404 0.256275 0.256275 1
4
 0.982887 0.316664 0.316664 1
4
 0.9877 0.322664 0.322664 1
4
 0.992314 0.325986 0.325986 1
4
 0.98217 0.314232 0.314232 1
4
 0.986149 0.316903 0.316903 1
4
 0.98981 0.321374 0.321374 1
4
 0.978921 0.31557 0.31557 1
4
 0.983714 0.321549 0.321549 1
4
 0.983328 0.318906 0.318906 1
4
 0.977823 0.310571 0.310571 1
4
 0.992759 0.328294 0.328294 1
4
 1 0.32272 0.32272 0.979897
4
 1 0.319408 0.319408 0.980612
4
 1 0.319766 0.319766 0.985415
4
 1 0.323008 0.323008 0.974629
4
 1 0.324283 0.324283 0.975888
4
 1 0.317401 0.317401 0.985968
4
 1 0.321601 0.321601 0.984641
4
 1 0.323997 0.323997 0.984088
4
 1 0.329161 0.329161 0.972552
4
 1 0.326144 0.326144 0.975122
4
 1 0.326312 0.326312 0.978633
4
 1 0.316001 0.316001 0.981382
4
 1 0.321528 0.321528 0.974573
4
 1 0.319673 0.319673 0.974902
4
 1 0.315947 0.315947 0.985912
4
 1 0.313944 0.313944 0.976654
4
 1 0.315522 0.315522 0.971076
4
 1 0.315766 0.315766 0.976325
4
 1 0.320474 0.320474 0.963689
4
 1 0.317667 0.317667 0.966181
4
 1 0.319435 0.319435 0.969878
4
 1 0.312015 0.312015 0.977257
4
 1 0.308674 0.308674 0.983422
4
 1 0.312257 0.312257 0.98254
4
 1 0.307478 0.307478 0.988238
4
 1 0.309778 0.309778 0.987906
4
 1 0.310225 0.310225 0.977805
4
 1 0.315715 0.315715 0.966777
4
 1 0.311529 0.311529 0.97233
4
 1 0.303348 0.303348 0.989848
4
 1 0.308192 0.308192 0.978464
4
 1 0.305371 0.305371 0.983974
4
 1 0.305713 0.305713 0.988793
4
 1 0.317719 0.317719 0.975723
4
 1 0.314016 0.314016 0.986742
4
 1 0.311576 0.311576 0.987573
4
 0.933463 0.242418 0.242418 1
4
 0.935614 0.245441 0.245441 1
4
 0.940354 0.247122 0.247122 1
4
 0.94046 0.249007 0.249007 1
4
 0.931944 0.242788 0.242788 1
4
 0.926778 0.236552 0.236552 1
4
 0.934406 0.247325 0.247325 1
4
 0.938929 0.249387 0.249387 1
4
 0.934772 0.250208 0.250208 1
4
 0.934824 0.252841 0.252841 1
4
 0.939613 0.256396 0.256396 1
4
 0.939455 0.254337 0.254337 1
4
 0.939245 0.250919 0.250919 1
4
 0.939403 0.25295 0.25295 1
4
 0.943054 0.240305 0.240305 1
4
 0.946396 0.240532 0.240532 1
4
 0.946821 0.242235 0.242235 1
4
 0.943423 0.243918 0.243918 1
4
 0.943528 0.247423 0.247423 1
4
 0.946766 0.247427 0.247427 1
4
 0.946979 0.249131 0.249131 1
4
 0.946714 0.245668 0.245668 1
4
 0.94714 0.244129 0.244129 1
4
 0.947031 0.250914 0.250914 1
4
 0.947244 0.252642 0.252642 1
4
 0.943686 0.251095 0.251095 1
4
 0.937714 0.260255 0.260255 1
4
 0.943524 0.264928 0.264928 1
4
 0.938345 0.263463 0.263463 1
4
 0.942623 0.265928 0.265928 1
4
 0.935453 0.255957 0.255957 1
4
 0.939613 0.257681 0.257681 1
4
 0.941883 0.262446 0.262446 1
4
 0.940246 0.259555 0.259555 1
4
 0.977281 0.282045 0.282045 1
4
 0.972682 0.278112 0.278112 1
4
 0.968649 0.275972 0.275972 1
4
 0.972845 0.2813 0.2813 1
4
 0.975197 0.281765 0.281765 1
4
 0.986932 0.288127 0.288127 1
4
 0.980194 0.281941 0.281941 1
4
 0.977775 0.280876 0.280876 1
4
 0.98411 0.284205 0.284205 1
4
 0.980303 0.284565 0.284565 1
4
 0.983833 0.287352 0.287352 1
4
 0.994051 0.292333 0.292333 1
4
 0.997853 0.296239 0.296239 1
4
 0.988651 0.287477 0.287477 1
4
 0.993827 0.294723 0.294723 1
4
 0.988373 0.29066 0.29066 1
4
 1 0.339562 0.339562 0.988578
4
 1 0.339398 0.339398 0.985253
4
 1 0.341459 0.341459 0.981057
4
 1 0.344607 0.344607 0.978252
4
 1 0.331575 0.331575 0.999798
4
 1 0.333851 0.333851 0.995205
4
 1 0.333689 0.333689 0.991858
4
 1 0.331753 0.331753 0.991969
4
 1 0.328684 0.328684 0.996882
4
 0.998631 0.326263 0.326263 1
4
 0.997678 0.326949 0.326949 1
4
 1 0.334822 0.334822 0.998004
4
 0.994881 0.326981 0.326981 1
4
 1 0.336957 0.336957 0.990078
4
 1 0.33484 0.33484 0.986858
4
 1 0.338839 0.338839 0.982545
4
 1 0.32094 0.32094 0.956679
4
 1 0.318128 0.318128 0.959153
4
 1 0.315636 0.315636 0.95953
4
 1 0.314643 0.314643 0.957968
4
 1 0.320671 0.320671 0.959423
4
 1 0.325382 0.325382 0.956626
4
 1 0.322456 0.322456 0.963094
4
 1 0.315372 0.315372 0.962281
4
 1 0.331862 0.331862 0.954696
4
 1 0.330152 0.330152 0.953624
4
 1 0.335793 0.335793 0.949883
4
 1 0.333393 0.333393 0.957595
4
 1 0.337343 0.337343 0.952769
4
 1 0.339184 0.339184 0.952929
4
 1 0.334975 0.334975 0.961367
4
 1 0.33367 0.33367 0.960342
4
 1 0.328965 0.328965 0.957379
4
 1 0.334586 0.334586 0.953624
4
 1 0.327898 0.327898 0.963528
4
 1 0.330942 0.330942 0.961205
4
 1 0.326006 0.326006 0.963852
4
 1 0.324327 0.324327 0.96277
4
 1 0.340398 0.340398 0.948978
4
 0.959656 0.295354 0.295354 1
4
 0.949472 0.28759 0.28759 1
4
 0.9538 0.290765 0.290765 1
4
 0.972239 0.304195 0.304195 1
4
 0.970331 0.300786 0.300786 1
4
 0.965873 0.29588 0.29588 1
4
 0.965385 0.298103 0.298103 1
4
 0.96149 0.295591 0.295591 1
4
 0.975192 0.304732 0.304732 1
4
 0.981068 0.310805 0.310805 1
4
 1 0.317023 0.317023 0.994978
4
 1 0.321031 0.321031 0.98963
4
 1 0.315065 0.315065 0.995369
4
 1 0.316301 0.316301 0.990741
4
 1 0.319385 0.319385 0.99442
4
 1 0.317487 0.317487 0.999346
4
 0.994996 0.309765 0.309765 1
4
 0.994884 0.311547 0.311547 1
4
 0.999813 0.31339 0.31339 1
4
 1 0.321501 0.321501 0.993974
4
 1 0.325955 0.325955 0.988242
4
 1 0.327357 0.327357 0.983371
4
 1 0.325734 0.325734 0.983591
4
 1 0.321436 0.321436 0.998337
4
 1 0.324018 0.324018 0.993138
4
 0.996672 0.316744 0.316744 1
4
 0.995331 0.313753 0.313753 1
4
 1 0.330694 0.330694 0.987189
4
 1 0.329817 0.329817 0.991857
4
 1 0.336873 0.336873 0.982655
4
 1 0.33556 0.33556 0.981607
4
 1 0.334023 0.334023 0.981552
4
 1 0.325888 0.325888 0.99258
4
 1 0.325024 0.325024 0.997274
4
 0.997232 0.318751 0.318751 1
4
 0.99824 0.322503 0.322503 1
4
 1 0.327635 0.327635 0.992079
4
 1 0.32992 0.32992 0.982543
4
 1 0.331813 0.331813 0.981772
4
 0.998744 0.324396 0.324396 1
4
 0.967503 0.29068 0.29068 1
4
 0.964791 0.28974 0.28974 1
4
 0.97235 0.298447 0.298447 1
4
 0.967883 0.293579 0.293579 1
4
 0.97618 0.299204 0.299204 1
4
 0.972897 0.295372 0.295372 1
4
 0.975302 0.300473 0.300473 1
4
 0.951558 0.271684 0.271684 1
4
 0.949903 0.267351 0.267351 1
4
 0.95236 0.270411 0.270411 1
4
 0.946814 0.268166 0.268166 1
4
 0.946071 0.264215 0.264215 1
4
 0.959497 0.281022 0.281022 1
4
 0.956217 0.274992 0.274992 1
4
 0.950649 0.27271 0.27271 1
4
 0.953482 0.276269 0.276269 1
4
 0.958475 0.278086 0.278086 1
4
 0.960898 0.284914 0.284914 1
4
 0.957559 0.281004 0.281004 1
4
 0.968972 0.290452 0.290452 1
4
 0.962573 0.282852 0.282852 1
4
 0.96669 0.28722 0.28722 1
4
 0.975582 0.278009 0.278009 1
4
 0.981902 0.281304 0.281304 1
4
 0.977886 0.277413 0.277413 1
4
 0.973776 0.274691 0.274691 1
4
 0.969139 0.274828 0.274828 1
4
 0.968921 0.273404 0.273404 1
4
 0.971373 0.273654 0.273654 1
4
 1 0.339569 0.339569 0.977318
4
 1 0.34243 0.34243 0.974852
4
 1 0.34404 0.34404 0.975564
4
 1 0.341095 0.341095 0.973812
4
 1 0.336695 0.336695 0.97622
4
 1 0.345586 0.345586 0.972064
4
 1 0.339532 0.339532 0.973757
4
 0.995172 0.277875 0.277875 1
4
 0.994781 0.27605 0.27605 1
4
 0.999708 0.280943 0.280943 1
4
 1 0.28133 0.28133 0.996256
4
 0.99439 0.274237 0.274237 1
4
 0.998923 0.277265 0.277265 1
4
 0.990878 0.274893 0.274893 1
4
 0.995786 0.279765 0.279765 1
4
 0.987545 0.275476 0.275476 1
4
 0.991935 0.278723 0.278723 1
4
 0.9901 0.271295 0.271295 1
4
 1 0.285249 0.285249 0.99391
4
 1 0.283069 0.283069 0.995641
4
 1 0.286337 0.286337 0.994301
4
 0.996457 0.2818 0.2818 1
4
 1 0.284743 0.284743 0.998946
4
 0.987317 0.296881 0.296881 1
4
 0.986375 0.298002 0.298002 1
4
 0.994104 0.301379 0.301379 1
4
 0.989204 0.297119 0.297119 1
4
 0.990537 0.302463 0.302463 1
4
 0.995053 0.304277 0.304277 1
4
 0.978927 0.29033 0.29033 1
4
 0.977992 0.291426 0.291426 1
4
 0.969953 0.283287 0.283287 1
4
 0.973992 0.285484 0.285484 1
4
 0.971207 0.285855 0.285855 1
4
 0.972134 0.288123 0.288123 1
4
 0.982451 0.294153 0.294153 1
4
 0.978433 0.288155 0.288155 1
4
 0.985269 0.293281 0.293281 1
4
 0.985655 0.299683 0.299683 1
4
 0.981072 0.296629 0.296629 1
4
 0.975633 0.291917 0.291917 1
4
 0.954555 0.270606 0.270606 1
4
 0.953752 0.267385 0.267385 1
4
 0.957347 0.270831 0.270831 1
4
 0.948252 0.264406 0.264406 1
4
 0.961224 0.27634 0.27634 1
4
 0.959822 0.273931 0.273931 1
4
 0.959283 0.276783 0.276783 1
4
 0.964036 0.27657 0.27657 1
4
 0.969464 0.281165 0.281165 1
4
 0.966691 0.281531 0.281531 1
4
 0.963494 0.279449 0.279449 1
4
 0.959015 0.270671 0.270671 1
4
 0.954449 0.265441 0.265441 1
4
 0.960255 0.269956 0.269956 1
4
 0.949904 0.264249 0.264249 1
4
 0.949745 0.262126 0.262126 1
4
 0.963874 0.273435 0.273435 1
4
 0.96805 0.278715 0.278715 1
4
 1 0.344609 0.344609 0.947594
4
 0.952629 0.261715 0.261715 1
4
 0.951347 0.257949 0.257949 1
4
 0.958209 0.264787 0.264787 1
4
 0.955845 0.262034 0.262034 1
4
 0.947775 0.256371 0.256371 1
4
 0.947934 0.258446 0.258446 1
4
 0.959285 0.268153 0.268153 1
4
 0.95907 0.266764 0.266764 1
4
 0.948786 0.260376 0.260376 1
4
 0.950281 0.250918 0.250918 1
4
 0.954292 0.25256 0.25256 1
4
 0.950496 0.247641 0.247641 1
4
 0.953596 0.25062 0.25062 1
4
 0.950707 0.254385 0.254385 1
4
 0.954506 0.254299 0.254299 1
4
 0.954398 0.25619 0.25619 1
4
 0.955416 0.260192 0.260192 1
4
 0.954612 0.257953 0.257953 1
4
 0.947349 0.254569 0.254569 1
4
 0.9992 0.292651 0.292651 1
4
 0.995448 0.29086 0.29086 1
4
 0.989374 0.28349 0.28349 1
4
 0.990041 0.286028 0.286028 1
4
 0.993829 0.286487 0.286487 1
4
 0.998359 0.290133 0.290133 1
4
 1 0.294918 0.294918 0.999622
4
 1 0.29772 0.29772 0.995812
4
 1 0.297425 0.297425 0.99185
4
 1 0.293324 0.293324 0.996706
4
 1 0.297013 0.297013 0.999566
4
 0.991209 0.288353 0.288353 1
4
 1 0.299509 0.299509 0.999791
4
 1 0.301834 0.301834 0.989848
4
 1 0.302172 0.302172 0.994696
4
 1 0.296361 0.296361 0.967425
4
 1 0.295928 0.295928 0.971617
4
 1 0.299782 0.299782 0.966122
4
 1 0.294008 0.294008 0.972708
4
 1 0.291982 0.291982 0.973856
4
 1 0.292409 0.292409 0.969654
4
 1 0.290653 0.290653 0.982535
4
 1 0.28865 0.28865 0.983693
4
 1 0.285559 0.285559 0.989899
4
 1 0.288855 0.288855 0.988567
4
 1 0.291555 0.291555 0.978076
4
 1 0.291762 0.291762 0.982921
4
 1 0.297402 0.297402 0.971399
4
 1 0.295051 0.295051 0.976924
4
 1 0.289969 0.289969 0.975004
4
 1 0.287451 0.287451 0.98088
4
 1 0.286444 0.286444 0.985407
4
 1 0.285199 0.285199 0.972761
4
 1 0.280888 0.280888 0.979722
4
 1 0.283041 0.283041 0.977799
4
 1 0.288727 0.288727 0.971342
4
 1 0.284898 0.284898 0.976921
4
 1 0.286543 0.286543 0.976373
4
 1 0.287871 0.287871 0.976648
4
 1 0.279039 0.279039 0.988731
4
 1 0.281178 0.281178 0.98679
4
 1 0.282482 0.282482 0.987067
4
 1 0.281493 0.281493 0.991623
4
 1 0.276842 0.276842 0.994578
4
 1 0.277725 0.277725 0.996423
4
 1 0.280592 0.280592 0.983912
4
 1 0.276265 0.276265 0.991677
4
 1 0.284054 0.284054 0.982257
4
 1 0.284372 0.284372 0.987068
4
 1 0.279583 0.279583 0.996423
4
 0.980031 0.274594 0.274594 1
4
 0.985161 0.281047 0.281047 1
4
 0.981132 0.277159 0.277159 1
4
 0.984167 0.276391 0.276391 1
4
 0.988931 0.281498 0.281498 1
4
 0.988542 0.279649 0.279649 1
4
 0.976679 0.27322 0.27322 1
4
 0.979701 0.272463 0.272463 1
4
 0.975803 0.269393 0.269393 1
4
 0.972575 0.27054 0.27054 1
4
 0.970666 0.266618 0.266618 1
4
 0.970993 0.268255 0.268255 1
4
 0.981792 0.279641 0.279641 1
4
 0.973667 0.273067 0.273067 1
4
 0.979922 0.271156 0.271156 1
4
 0.98821 0.277479 0.277479 1
4
 0.971539 0.264167 0.264167 1
4
 0.970885 0.265338 0.265338 1
4
 0.964904 0.2713 0.2713 1
4
 0.969301 0.277979 0.277979 1
4
 0.962307 0.267089 0.267089 1
4
 0.967128 0.270141 0.270141 1
4
 0.964742 0.267333 0.267333 1
4
 0.959125 0.262038 0.262038 1
4
 0.963173 0.265075 0.265075 1
4
 0.967998 0.268105 0.268105 1
4
 0.962796 0.258118 0.258118 1
4
 0.966425 0.261446 0.261446 1
4
 0.96507 0.257135 0.257135 1
4
 0.962094 0.256136 0.256136 1
4
 0.962147 0.259263 0.259263 1
4
 0.958426 0.257866 0.257866 1
4
 0.957835 0.253997 0.253997 1
4
 0.962038 0.26119 0.26119 1
4
 0.966098 0.264218 0.264218 1
4
 0.962362 0.262795 0.262795 1
4
 1 0.334993 0.334993 0.967324
4
 1 0.336901 0.336901 0.963476
4
 1 0.330754 0.330754 0.968574
4
 1 0.332513 0.332513 0.964991
4
 1 0.330925 0.330925 0.972061
4
 1 0.339149 0.339149 0.966131
4
 1 0.34108 0.34108 0.962287
4
 1 0.338631 0.338631 0.969882
4
 1 0.338092 0.338092 0.964775
4
 1 0.333749 0.333749 0.973154
4
 1 0.332095 0.332095 0.973372
4
 1 0.335665 0.335665 0.97239
4
 0.939663 0.267433 0.267433 1
4
 0.941618 0.266683 0.266683 1
4
 0.943947 0.269935 0.269935 1
4
 0.94676 0.273458 0.273458 1
4
 0.975854 0.283814 0.283814 1
4
 0.980303 0.288386 0.288386 1
4
 0.981735 0.287067 0.287067 1
4
 0.954875 0.280095 0.280095 1
4
 0.961276 0.287755 0.287755 1
4
 0.948729 0.272692 0.272692 1
4
 0.968807 0.296402 0.296402 1
4
 0.976233 0.303362 0.303362 1
4
 0.979143 0.307322 0.307322 1
4
 0.996564 0.30001 0.30001 1
4
 0.991652 0.295769 0.295769 1
4
 0.990706 0.293931 0.293931 1
4
 1 0.301845 0.301845 0.998725
4
 0.992042 0.297724 0.297724 1
4
 1 0.303721 0.303721 0.998333
4
 0.997907 0.304897 0.304897 1
4
 1 0.305993 0.305993 0.997998
4
 0.98621 0.291692 0.291692 1
4
 0.922108 0.227617 0.227617 1
4
 0.923195 0.231388 0.231388 1
4
 0.959494 0.293471 0.293471 1
4
 0.951286 0.28782 0.28782 1
4
 1 0.326435 0.326435 0.969879
4
 1 0.32817 0.32817 0.966291
4
 1 0.323276 0.323276 0.968953
4
 1 0.329465 0.329465 0.967541
4
 0.954669 0.245483 0.245483 1
4
 0.955098 0.24722 0.24722 1
4
 0.961177 0.251171 0.251171 1
4
 0.950497 0.24436 0.24436 1
4
 0.956976 0.250022 0.250022 1
4
 0.954025 0.24905 0.24905 1
4
 0.960098 0.25303 0.25303 1
4
 1 0.310247 0.310247 0.964228
4
 1 0.309271 0.309271 0.962658
4
 1 0.304128 0.304128 0.970419
4
 1 0.306417 0.306417 0.964769
4
 1 0.30675 0.30675 0.969276
4
 1 0.311917 0.311917 0.961093
4
 1 0.31119 0.31119 0.967808
4
 1 0.309374 0.309374 0.967699
4
 1 0.308066 0.308066 0.961632
4
 1 0.300978 0.300978 0.970473
4
 1 0.296964 0.296964 0.981213
4
 1 0.298598 0.298598 0.975992
4
 1 0.302943 0.302943 0.969384
4
 1 0.301156 0.301156 0.977309
4
 1 0.303272 0.303272 0.973913
4
 1 0.298332 0.298332 0.981268
4
 1 0.291621 0.291621 0.988179
4
 1 0.293225 0.293225 0.982921
4
 1 0.288343 0.288343 0.993576
4
 1 0.298893 0.298893 0.971399
4
 1 0.303242 0.303242 0.964822
4
 1 0.294908 0.294908 0.982149
4
 1 0.294645 0.294645 0.987458
4
 1 0.292168 0.292168 0.992461
4
 1 0.289998 0.289998 0.992795
4
 1 0.306655 0.306655 0.978464
4
 1 0.307682 0.307682 0.972875
4
 1 0.302738 0.302738 0.981765
4
 1 0.301536 0.301536 0.985909
4
 1 0.304865 0.304865 0.978353
4
 1 0.300435 0.300435 0.983696
4
 1 0.303752 0.303752 0.976158
4
 1 0.298804 0.298804 0.98353
4
 1 0.297617 0.297617 0.987681
4
 1 0.295115 0.295115 0.992685
4
 1 0.293513 0.293513 0.992517
4
 0.989645 0.312478 0.312478 1
4
 0.993264 0.317268 0.317268 1
4
 0.986594 0.308165 0.308165 1
4
 0.990925 0.310615 0.310615 1
4
 0.990646 0.316156 0.316156 1
4
 0.983994 0.307085 0.307085 1
4
 0.98311 0.308388 0.308388 1
4
 0.986039 0.312413 0.312413 1
4
 0.989644 0.317202 0.317202 1
4
 0.993318 0.321678 0.321678 1
4
 0.985212 0.30107 0.30107 1
4
 0.989703 0.305921 0.305921 1
4
 0.994606 0.30773 0.30773 1
4
 0.994327 0.305994 0.305994 1
4
 0.980795 0.300415 0.300415 1
4
 0.985266 0.305255 0.305255 1
4
 0.977661 0.298969 0.298969 1
4
 0.980079 0.304131 0.304131 1
4
 0.985101 0.302803 0.302803 1
4
 0.977497 0.296568 0.296568 1
4
 0.975195 0.293268 0.293268 1
4
 0.972078 0.291856 0.291856 1
4
 0.944267 0.259206 0.259206 1
4
 0.94395 0.255059 0.255059 1
4
 1 0.329696 0.329696 0.977919
4
 1 0.33324 0.33324 0.976932
4
 0.994223 0.272489 0.272489 1
4
 0.990212 0.268396 0.268396 1
4
 1 0.274963 0.274963 0.999392
4
 0.996572 0.270999 0.270999 1
4
 0.994726 0.271359 0.271359 1
4
 0.982116 0.309408 0.309408 1
4
 0.9887 0.317869 0.317869 1
4
 0.964738 0.281982 0.281982 1
4
 0.968864 0.286337 0.286337 1
4
 0.965659 0.28422 0.28422 1
4
 0.997911 0.288094 0.288094 1
4
 0.992993 0.282605 0.282605 1
4
 0.997576 0.285858 0.285858 1
4
 1 0.288883 0.288883 0.997881
4
 0.997184 0.283981 0.283981 1
4
 1 0.306807 0.306807 0.993301
4
 0.99914 0.309576 0.309576 1
4
 1 0.312735 0.312735 0.995928
4
 1 0.311057 0.311057 0.996207
4
 1 0.308641 0.308641 0.997046
4
 1 0.311523 0.311523 0.992131
1
 1

